100
128
19
9
38
43
9
4
49
8
25
59
46
51
44
18
29
36
35
36
23
64
22
45
8
12
33
10
25
49
11
9
20
48
17
55
64
32
32
4
42
37
49
28
23
26
44
14
13
44
31
16
10
40
22
24
18
39
33
33
24
24
20
23
26
16
33
19
39
39
15
8
14
7
28
17
45
4
38
33
43
20
14
32
22
25
48
24
18
60
62
20
35
31
46
25
53
25
44
64
64
22